n = 10; 

m=12; 


78	64	98	60	89	49	2	79	79	53
39	15	9	57	9	13	71	2	34	49
70	57	8	74	13	37	87	71	89	57
75	30	1	71	46	87	78	76	75	55
94	98	63	83	19	79	54	78	29	8
53	28	88	10	32	38	25	24	90	7
67	91	88	23	91	71	3	26	41	96
63	29	11	6	31	63	36	39	57	47
87	16	2	18	75	39	77	69	15	78
37	91	42	47	94	14	94	34	72	36
69	3	38	25	87	7	66	54	86	49
94	98	63	83	19	79	54	78	29	8
			
											
											
											
											
											
											
											


